c CNF file corresponding to a (partial) station packing problem.
p cnf 4290 229
1 2 3 4 5 6 7 8 9 10 11 12 13 14 0
-1 -2 0
-1 -3 0
-1 -4 0
-1 -5 0
-1 -6 0
-1 -7 0
-1 -8 0
-1 -9 0
-1 -10 0
-1 -11 0
-1 -12 0
-1 -13 0
-1 -14 0
-2 -3 0
-2 -4 0
-2 -5 0
-2 -6 0
-2 -7 0
-2 -8 0
-2 -9 0
-2 -10 0
-2 -11 0
-2 -12 0
-2 -13 0
-2 -14 0
-3 -4 0
-3 -5 0
-3 -6 0
-3 -7 0
-3 -8 0
-3 -9 0
-3 -10 0
-3 -11 0
-3 -12 0
-3 -13 0
-3 -14 0
-4 -5 0
-4 -6 0
-4 -7 0
-4 -8 0
-4 -9 0
-4 -10 0
-4 -11 0
-4 -12 0
-4 -13 0
-4 -14 0
-5 -6 0
-5 -7 0
-5 -8 0
-5 -9 0
-5 -10 0
-5 -11 0
-5 -12 0
-5 -13 0
-5 -14 0
-6 -7 0
-6 -8 0
-6 -9 0
-6 -10 0
-6 -11 0
-6 -12 0
-6 -13 0
-6 -14 0
-7 -8 0
-7 -9 0
-7 -10 0
-7 -11 0
-7 -12 0
-7 -13 0
-7 -14 0
-8 -9 0
-8 -10 0
-8 -11 0
-8 -12 0
-8 -13 0
-8 -14 0
-9 -10 0
-9 -11 0
-9 -12 0
-9 -13 0
-9 -14 0
-10 -11 0
-10 -12 0
-10 -13 0
-10 -14 0
-11 -12 0
-11 -13 0
-11 -14 0
-12 -13 0
-12 -14 0
-13 -14 0
4274 4275 4276 4277 4278 4279 4280 4281 4282 4283 4284 4285 4286 4287 4288 4289 4290 0
-4274 -4275 0
-4274 -4276 0
-4274 -4277 0
-4274 -4278 0
-4274 -4279 0
-4274 -4280 0
-4274 -4281 0
-4274 -4282 0
-4274 -4283 0
-4274 -4284 0
-4274 -4285 0
-4274 -4286 0
-4274 -4287 0
-4274 -4288 0
-4274 -4289 0
-4274 -4290 0
-4275 -4276 0
-4275 -4277 0
-4275 -4278 0
-4275 -4279 0
-4275 -4280 0
-4275 -4281 0
-4275 -4282 0
-4275 -4283 0
-4275 -4284 0
-4275 -4285 0
-4275 -4286 0
-4275 -4287 0
-4275 -4288 0
-4275 -4289 0
-4275 -4290 0
-4276 -4277 0
-4276 -4278 0
-4276 -4279 0
-4276 -4280 0
-4276 -4281 0
-4276 -4282 0
-4276 -4283 0
-4276 -4284 0
-4276 -4285 0
-4276 -4286 0
-4276 -4287 0
-4276 -4288 0
-4276 -4289 0
-4276 -4290 0
-4277 -4278 0
-4277 -4279 0
-4277 -4280 0
-4277 -4281 0
-4277 -4282 0
-4277 -4283 0
-4277 -4284 0
-4277 -4285 0
-4277 -4286 0
-4277 -4287 0
-4277 -4288 0
-4277 -4289 0
-4277 -4290 0
-4278 -4279 0
-4278 -4280 0
-4278 -4281 0
-4278 -4282 0
-4278 -4283 0
-4278 -4284 0
-4278 -4285 0
-4278 -4286 0
-4278 -4287 0
-4278 -4288 0
-4278 -4289 0
-4278 -4290 0
-4279 -4280 0
-4279 -4281 0
-4279 -4282 0
-4279 -4283 0
-4279 -4284 0
-4279 -4285 0
-4279 -4286 0
-4279 -4287 0
-4279 -4288 0
-4279 -4289 0
-4279 -4290 0
-4280 -4281 0
-4280 -4282 0
-4280 -4283 0
-4280 -4284 0
-4280 -4285 0
-4280 -4286 0
-4280 -4287 0
-4280 -4288 0
-4280 -4289 0
-4280 -4290 0
-4281 -4282 0
-4281 -4283 0
-4281 -4284 0
-4281 -4285 0
-4281 -4286 0
-4281 -4287 0
-4281 -4288 0
-4281 -4289 0
-4281 -4290 0
-4282 -4283 0
-4282 -4284 0
-4282 -4285 0
-4282 -4286 0
-4282 -4287 0
-4282 -4288 0
-4282 -4289 0
-4282 -4290 0
-4283 -4284 0
-4283 -4285 0
-4283 -4286 0
-4283 -4287 0
-4283 -4288 0
-4283 -4289 0
-4283 -4290 0
-4284 -4285 0
-4284 -4286 0
-4284 -4287 0
-4284 -4288 0
-4284 -4289 0
-4284 -4290 0
-4285 -4286 0
-4285 -4287 0
-4285 -4288 0
-4285 -4289 0
-4285 -4290 0
-4286 -4287 0
-4286 -4288 0
-4286 -4289 0
-4286 -4290 0
-4287 -4288 0
-4287 -4289 0
-4287 -4290 0
-4288 -4289 0
-4288 -4290 0
-4289 -4290 0
